<number of tasks>
20

<cycle time>
1000

<order strength>
0,826


<task times>
1 84
2 320
3 136
4 61
5 101
6 100
7 176
8 204
9 185
10 49
11 357
12 48
13 149
14 83
15 129
16 69
17 136
18 172
19 132
20 215

<precedence relations>
1,4
1,6
2,4
2,5
3,4
3,5
4,7
5,7
5,9
6,8
6,9
7,10
7,11
7,12
8,10
8,11
9,10
9,12
10,13
10,14
11,13
11,14
12,13
13,15
13,16
14,15
15,17
16,18
16,19
17,19
19,20

<end>
